p cnf 14 22
1 -2 -9 0
1 -2 -3 9 -10 0
2 -3 -10 0
9 -8 -1 0
2 -3 -4 10 -11 0
3 -4 -11 0
10 -9 -2 0
3 -4 -5 11 -12 0
10 -9 -8 2 -1 0
4 -5 -12 0
11 -10 -3 0
4 -5 -6 12 -13 0
11 -10 -9 3 -2 0
5 -6 -13 0
12 -11 -4 0
5 -6 -7 13 -14 0
12 -11 -10 4 -3 0
6 -7 -14 0
13 -12 -5 0
13 -12 -11 5 -4 0
14 -13 -6 0
14 -13 -12 6 -5 0
